(declare-const X String)
; ^((19[0-9][0-9])|(20[0-1][0-5]))\-((0?[1-9])|(1[0-2]))\-((0?[1-9])|([1-2][0-9])|(3[0-1]))$
(assert (not (str.in_re X (re.++ (re.union (re.++ (str.to_re "19") (re.range "0" "9") (re.range "0" "9")) (re.++ (str.to_re "20") (re.range "0" "1") (re.range "0" "5"))) (str.to_re "-") (re.union (re.++ (re.opt (str.to_re "0")) (re.range "1" "9")) (re.++ (str.to_re "1") (re.range "0" "2"))) (str.to_re "-") (re.union (re.++ (re.opt (str.to_re "0")) (re.range "1" "9")) (re.++ (re.range "1" "2") (re.range "0" "9")) (re.++ (str.to_re "3") (re.range "0" "1"))) (str.to_re "\u{a}")))))
; From\u{3A}\w+SoftActivity\d+
(assert (str.in_re X (re.++ (str.to_re "From:") (re.+ (re.union (re.range "0" "9") (re.range "A" "Z") (re.range "a" "z") (str.to_re "_"))) (str.to_re "SoftActivity\u{13}") (re.+ (re.range "0" "9")) (str.to_re "\u{a}"))))
(check-sat)
